coords = array2d(1..24, 1..2, [337, 954, 518, 284, 433, 50, 361, 755, 924, 467,
    4, 124, 220, 519, 475, 21, 815, 419, 405, 923, 294, 739, 154, 51,
    491, 986, 101, 620, 207, 656, 155, 24, 531, 515, 761, 637, 37,
    774, 868, 296, 345, 447, 762, 322, 881, 217, 276, 85]);

n = 24;

